Ga27 Cu48 As27 O48
1.0
5.926401 10.321377 0.000000
11.754757 -0.000000 0.000000
-0.000000 -0.000000 -32.347902
Cu O Cu O Cu O Ga As Ga As Ga As
16 16 16 16 16 16 9 9 9 9 9 9
direct
0.244705 0.750214 0.431990 Cu
0.244705 0.500214 0.431990 Cu
0.744705 0.750214 0.431990 Cu
0.244705 0.250214 0.431990 Cu
0.744705 0.500214 0.431990 Cu
0.244705 0.000214 0.431990 Cu
0.744705 0.250214 0.431990 Cu
0.744705 0.000214 0.431990 Cu
0.495365 0.502822 0.386589 Cu
0.495365 0.252822 0.386589 Cu
0.995365 0.502822 0.386589 Cu
0.495365 0.002822 0.386589 Cu
0.995365 0.252822 0.386589 Cu
0.495365 0.752822 0.386589 Cu
0.995365 0.002822 0.386589 Cu
0.995365 0.752822 0.386589 Cu
0.370387 0.690765 0.386761 O
0.370387 0.440765 0.386761 O
0.870387 0.690765 0.386761 O
0.370387 0.190765 0.386761 O
0.870387 0.440765 0.386761 O
0.370387 0.940765 0.386761 O
0.870387 0.190765 0.386761 O
0.870387 0.940765 0.386761 O
0.120312 0.814895 0.386424 O
0.120312 0.564895 0.386424 O
0.620312 0.814895 0.386424 O
0.120312 0.314895 0.386424 O
0.620312 0.564895 0.386424 O
0.120312 0.064895 0.386424 O
0.620312 0.314895 0.386424 O
0.620312 0.064895 0.386424 O
0.243384 0.744980 0.522783 Cu
0.243384 0.494980 0.522783 Cu
0.743384 0.744980 0.522783 Cu
0.243384 0.244980 0.522783 Cu
0.743384 0.494980 0.522783 Cu
0.243384 0.994980 0.522783 Cu
0.743384 0.244980 0.522783 Cu
0.743384 0.994980 0.522783 Cu
0.494045 0.747588 0.477383 Cu
0.494045 0.497588 0.477383 Cu
0.994045 0.747588 0.477383 Cu
0.494045 0.247588 0.477383 Cu
0.994045 0.497588 0.477383 Cu
0.494045 0.997588 0.477383 Cu
0.994045 0.247588 0.477383 Cu
0.994045 0.997588 0.477383 Cu
0.369066 0.685530 0.477555 O
0.369066 0.435530 0.477555 O
0.869066 0.685530 0.477555 O
0.369066 0.185530 0.477555 O
0.869066 0.435530 0.477555 O
0.369066 0.935530 0.477555 O
0.869066 0.185530 0.477555 O
0.869066 0.935530 0.477555 O
0.118991 0.809660 0.477217 O
0.118991 0.559660 0.477217 O
0.618991 0.809660 0.477217 O
0.118991 0.309660 0.477217 O
0.618991 0.559660 0.477217 O
0.118991 0.059660 0.477217 O
0.618991 0.309660 0.477217 O
0.618991 0.059660 0.477217 O
0.242064 0.739745 0.613576 Cu
0.242064 0.489745 0.613576 Cu
0.742064 0.739745 0.613576 Cu
0.242064 0.239745 0.613576 Cu
0.742064 0.489745 0.613576 Cu
0.242064 0.989745 0.613576 Cu
0.742064 0.239745 0.613576 Cu
0.742064 0.989745 0.613576 Cu
0.492724 0.742353 0.568176 Cu
0.492724 0.492353 0.568176 Cu
0.992724 0.742353 0.568176 Cu
0.492724 0.242353 0.568176 Cu
0.992724 0.492353 0.568176 Cu
0.492724 0.992353 0.568176 Cu
0.992724 0.242353 0.568176 Cu
0.992724 0.992353 0.568176 Cu
0.367745 0.680296 0.568348 O
0.367745 0.430296 0.568348 O
0.867745 0.680296 0.568348 O
0.367745 0.180296 0.568348 O
0.867745 0.430296 0.568348 O
0.367745 0.930296 0.568348 O
0.867745 0.180296 0.568348 O
0.867745 0.930296 0.568348 O
0.117670 0.804426 0.568010 O
0.117670 0.554426 0.568010 O
0.617670 0.804426 0.568010 O
0.117670 0.304426 0.568010 O
0.617670 0.554426 0.568010 O
0.117670 0.054426 0.568010 O
0.617670 0.304426 0.568010 O
0.617670 0.054426 0.568010 O
1.091270 0.593588 0.659947 Ga
0.757936 0.593588 0.659947 Ga
0.424603 0.593588 0.659947 Ga
1.091270 0.260255 0.659947 Ga
0.757936 0.260255 0.659947 Ga
0.424603 0.260255 0.659947 Ga
1.091270 0.926922 0.659947 Ga
0.757936 0.926922 0.659947 Ga
0.424603 -0.073078 0.659947 Ga
0.980159 0.482477 0.685605 As
0.646825 0.482477 0.685605 As
1.313492 0.482477 0.685605 As
0.980159 0.149144 0.685605 As
0.646825 0.149144 0.685605 As
1.313492 0.149144 0.685605 As
0.980159 0.815810 0.685605 As
0.646825 0.815810 0.685605 As
1.313492 0.815810 0.685605 As
0.980159 0.482477 0.762577 Ga
0.646825 0.482477 0.762577 Ga
1.313492 0.482477 0.762577 Ga
0.980159 0.149144 0.762577 Ga
0.646825 0.149144 0.762577 Ga
1.313492 0.149144 0.762577 Ga
0.980159 0.815810 0.762577 Ga
0.646825 0.815810 0.762577 Ga
1.313492 0.815810 0.762577 Ga
0.869047 0.371366 0.788235 As
0.535714 0.371366 0.788235 As
1.202381 0.371366 0.788235 As
0.869047 0.038033 0.788235 As
0.535714 0.038033 0.788235 As
1.202381 0.038033 0.788235 As
0.869047 0.704699 0.788235 As
0.535714 0.704699 0.788235 As
1.202381 0.704699 0.788235 As
0.869047 0.371366 0.865207 Ga
0.535714 0.371366 0.865207 Ga
1.202381 0.371366 0.865207 Ga
0.869047 0.038033 0.865207 Ga
0.535714 0.038033 0.865207 Ga
1.202381 0.038033 0.865207 Ga
0.869047 0.704699 0.865207 Ga
0.535714 0.704699 0.865207 Ga
1.202381 0.704699 0.865207 Ga
1.091270 0.260255 0.890865 As
0.757936 0.260255 0.890865 As
1.424603 0.260255 0.890865 As
1.091270 -0.073078 0.890865 As
0.757936 -0.073078 0.890865 As
1.424603 -0.073078 0.890865 As
1.091270 0.593588 0.890865 As
0.757936 0.593588 0.890865 As
1.424603 0.593588 0.890865 As
