V84 Au120
1.0
4.155700 0.000000 -0.000000
0.000000 20.778500 -0.000000
0.000000 0.000000 128.826700
Au V
120 84
direct
0.000000 0.800000 0.369624 Au
0.000000 0.600000 0.369624 Au
0.000000 0.400000 0.369624 Au
0.000000 0.200000 0.369624 Au
0.000000 0.000000 0.369624 Au
0.500000 0.700000 0.369624 Au
0.500000 0.500000 0.369624 Au
0.500000 0.300000 0.369624 Au
0.500000 0.100000 0.369624 Au
0.500000 0.900000 0.369624 Au
0.000000 0.700000 0.385753 Au
1.000000 0.500000 0.385753 Au
0.000000 0.300000 0.385753 Au
0.000000 0.100000 0.385753 Au
1.000000 0.900000 0.385753 Au
0.500000 0.800000 0.385753 Au
0.500000 0.600000 0.385753 Au
0.500000 0.400000 0.385753 Au
0.500000 0.200000 0.385753 Au
0.500000 0.000000 0.385753 Au
0.000000 0.800000 0.401882 Au
0.000000 0.600000 0.401882 Au
0.000000 0.400000 0.401882 Au
0.000000 0.200000 0.401882 Au
0.000000 0.000000 0.401882 Au
0.500000 0.700000 0.401882 Au
0.500000 0.500000 0.401882 Au
0.500000 0.300000 0.401882 Au
0.500000 0.100000 0.401882 Au
0.500000 0.900000 0.401882 Au
0.000000 0.700000 0.418011 Au
1.000000 0.500000 0.418011 Au
0.000000 0.300000 0.418011 Au
0.000000 0.100000 0.418011 Au
1.000000 0.900000 0.418011 Au
0.500000 0.800000 0.418011 Au
0.500000 0.600000 0.418011 Au
0.500000 0.400000 0.418011 Au
0.500000 0.200000 0.418011 Au
0.500000 0.000000 0.418011 Au
0.000000 0.800000 0.434140 Au
0.000000 0.600000 0.434140 Au
0.000000 0.400000 0.434140 Au
0.000000 0.200000 0.434140 Au
0.000000 0.000000 0.434140 Au
0.500000 0.700000 0.434140 Au
0.500000 0.500000 0.434140 Au
0.500000 0.300000 0.434140 Au
0.500000 0.100000 0.434140 Au
0.500000 0.900000 0.434140 Au
0.000000 0.700000 0.450269 Au
1.000000 0.500000 0.450269 Au
0.000000 0.300000 0.450269 Au
0.000000 0.100000 0.450269 Au
1.000000 0.900000 0.450269 Au
0.500000 0.800000 0.450269 Au
0.500000 0.600000 0.450269 Au
0.500000 0.400000 0.450269 Au
0.500000 0.200000 0.450269 Au
0.500000 0.000000 0.450269 Au
0.000000 0.800000 0.466398 Au
0.000000 0.600000 0.466398 Au
0.000000 0.400000 0.466398 Au
0.000000 0.200000 0.466398 Au
0.000000 0.000000 0.466398 Au
0.500000 0.700000 0.466398 Au
0.500000 0.500000 0.466398 Au
0.500000 0.300000 0.466398 Au
0.500000 0.100000 0.466398 Au
0.500000 0.900000 0.466398 Au
0.000000 0.700000 0.482527 Au
1.000000 0.500000 0.482527 Au
0.000000 0.300000 0.482527 Au
0.000000 0.100000 0.482527 Au
1.000000 0.900000 0.482527 Au
0.500000 0.800000 0.482527 Au
0.500000 0.600000 0.482527 Au
0.500000 0.400000 0.482527 Au
0.500000 0.200000 0.482527 Au
0.500000 0.000000 0.482527 Au
0.000000 0.800000 0.498656 Au
0.000000 0.600000 0.498656 Au
0.000000 0.400000 0.498656 Au
0.000000 0.200000 0.498656 Au
0.000000 0.000000 0.498656 Au
0.500000 0.700000 0.498656 Au
0.500000 0.500000 0.498656 Au
0.500000 0.300000 0.498656 Au
0.500000 0.100000 0.498656 Au
0.500000 0.900000 0.498656 Au
0.000000 0.700000 0.514785 Au
1.000000 0.500000 0.514785 Au
0.000000 0.300000 0.514785 Au
0.000000 0.100000 0.514785 Au
1.000000 0.900000 0.514785 Au
0.500000 0.800000 0.514785 Au
0.500000 0.600000 0.514785 Au
0.500000 0.400000 0.514785 Au
0.500000 0.200000 0.514785 Au
0.500000 0.000000 0.514785 Au
0.000000 0.800000 0.530914 Au
0.000000 0.600000 0.530914 Au
0.000000 0.400000 0.530914 Au
0.000000 0.200000 0.530914 Au
0.000000 0.000000 0.530914 Au
0.500000 0.700000 0.530914 Au
0.500000 0.500000 0.530914 Au
0.500000 0.300000 0.530914 Au
0.500000 0.100000 0.530914 Au
0.500000 0.900000 0.530914 Au
0.000000 0.700000 0.547043 Au
1.000000 0.500000 0.547043 Au
0.000000 0.300000 0.547043 Au
0.000000 0.100000 0.547043 Au
1.000000 0.900000 0.547043 Au
0.500000 0.800000 0.547043 Au
0.500000 0.600000 0.547043 Au
0.500000 0.400000 0.547043 Au
0.500000 0.200000 0.547043 Au
0.500000 0.000000 0.547043 Au
1.000000 1.014286 0.578957 V
1.000000 0.871429 0.578957 V
1.000000 0.728571 0.578957 V
1.000000 0.585714 0.578957 V
1.000000 0.442857 0.578957 V
1.000000 0.300000 0.578957 V
1.000000 0.157143 0.578957 V
0.500000 1.014286 0.562568 V
0.500000 0.871429 0.562568 V
0.500000 0.728571 0.562568 V
0.500000 0.585714 0.562568 V
0.500000 0.442857 0.562568 V
0.500000 0.300000 0.562568 V
0.500000 0.157143 0.562568 V
1.000000 0.942857 0.562568 V
1.000000 0.800000 0.562568 V
1.000000 0.657143 0.562568 V
1.000000 0.514286 0.562568 V
1.000000 0.371429 0.562568 V
1.000000 0.228571 0.562568 V
1.000000 1.085714 0.562568 V
0.500000 0.942857 0.578957 V
0.500000 0.800000 0.578957 V
0.500000 0.657143 0.578957 V
0.500000 0.514286 0.578957 V
0.500000 0.371429 0.578957 V
0.500000 0.228571 0.578957 V
0.500000 1.085714 0.578957 V
1.000000 1.014286 0.611737 V
1.000000 0.871429 0.611737 V
1.000000 0.728571 0.611737 V
1.000000 0.585714 0.611737 V
1.000000 0.442857 0.611737 V
1.000000 0.300000 0.611737 V
1.000000 0.157143 0.611737 V
0.500000 1.014286 0.595347 V
0.500000 0.871429 0.595347 V
0.500000 0.728571 0.595347 V
0.500000 0.585714 0.595347 V
0.500000 0.442857 0.595347 V
0.500000 0.300000 0.595347 V
0.500000 0.157143 0.595347 V
1.000000 0.942857 0.595347 V
1.000000 0.800000 0.595347 V
1.000000 0.657143 0.595347 V
1.000000 0.514286 0.595347 V
1.000000 0.371429 0.595347 V
1.000000 0.228571 0.595347 V
1.000000 1.085714 0.595347 V
0.500000 0.942857 0.611737 V
0.500000 0.800000 0.611737 V
0.500000 0.657143 0.611737 V
0.500000 0.514286 0.611737 V
0.500000 0.371429 0.611737 V
0.500000 0.228571 0.611737 V
0.500000 1.085714 0.611737 V
1.000000 1.014286 0.644516 V
1.000000 0.871429 0.644516 V
1.000000 0.728571 0.644516 V
1.000000 0.585714 0.644516 V
1.000000 0.442857 0.644516 V
1.000000 0.300000 0.644516 V
1.000000 0.157143 0.644516 V
0.500000 1.014286 0.628126 V
0.500000 0.871429 0.628126 V
0.500000 0.728571 0.628126 V
0.500000 0.585714 0.628126 V
0.500000 0.442857 0.628126 V
0.500000 0.300000 0.628126 V
0.500000 0.157143 0.628126 V
1.000000 0.942857 0.628126 V
1.000000 0.800000 0.628126 V
1.000000 0.657143 0.628126 V
1.000000 0.514286 0.628126 V
1.000000 0.371429 0.628126 V
1.000000 0.228571 0.628126 V
1.000000 1.085714 0.628126 V
0.500000 0.942857 0.644516 V
0.500000 0.800000 0.644516 V
0.500000 0.657143 0.644516 V
0.500000 0.514286 0.644516 V
0.500000 0.371429 0.644516 V
0.500000 0.228571 0.644516 V
0.500000 1.085714 0.644516 V
