V48 Au72
1.0
4.155700 0.000000 -0.000000
0.000000 12.467100 -0.000000
0.000000 0.000000 128.826700
Au V
72 48
direct
1.000000 0.666667 0.369624 Au
1.000000 0.333333 0.369624 Au
0.000000 0.000000 0.369624 Au
0.500000 0.500000 0.369624 Au
0.500000 0.166667 0.369624 Au
0.500000 0.833333 0.369624 Au
1.000000 0.500000 0.385753 Au
1.000000 0.166667 0.385753 Au
1.000000 0.833333 0.385753 Au
0.500000 0.666667 0.385753 Au
0.500000 0.333333 0.385753 Au
0.500000 0.000000 0.385753 Au
1.000000 0.666667 0.401882 Au
1.000000 0.333333 0.401882 Au
0.000000 0.000000 0.401882 Au
0.500000 0.500000 0.401882 Au
0.500000 0.166667 0.401882 Au
0.500000 0.833333 0.401882 Au
1.000000 0.500000 0.418011 Au
1.000000 0.166667 0.418011 Au
1.000000 0.833333 0.418011 Au
0.500000 0.666667 0.418011 Au
0.500000 0.333333 0.418011 Au
0.500000 0.000000 0.418011 Au
1.000000 0.666667 0.434140 Au
1.000000 0.333333 0.434140 Au
0.000000 0.000000 0.434140 Au
0.500000 0.500000 0.434140 Au
0.500000 0.166667 0.434140 Au
0.500000 0.833333 0.434140 Au
1.000000 0.500000 0.450269 Au
1.000000 0.166667 0.450269 Au
1.000000 0.833333 0.450269 Au
0.500000 0.666667 0.450269 Au
0.500000 0.333333 0.450269 Au
0.500000 0.000000 0.450269 Au
1.000000 0.666667 0.466398 Au
1.000000 0.333333 0.466398 Au
0.000000 0.000000 0.466398 Au
0.500000 0.500000 0.466398 Au
0.500000 0.166667 0.466398 Au
0.500000 0.833333 0.466398 Au
1.000000 0.500000 0.482527 Au
1.000000 0.166667 0.482527 Au
1.000000 0.833333 0.482527 Au
0.500000 0.666667 0.482527 Au
0.500000 0.333333 0.482527 Au
0.500000 0.000000 0.482527 Au
1.000000 0.666667 0.498656 Au
1.000000 0.333333 0.498656 Au
0.000000 0.000000 0.498656 Au
0.500000 0.500000 0.498656 Au
0.500000 0.166667 0.498656 Au
0.500000 0.833333 0.498656 Au
1.000000 0.500000 0.514785 Au
1.000000 0.166667 0.514785 Au
1.000000 0.833333 0.514785 Au
0.500000 0.666667 0.514785 Au
0.500000 0.333333 0.514785 Au
0.500000 0.000000 0.514785 Au
1.000000 0.666667 0.530914 Au
1.000000 0.333333 0.530914 Au
0.000000 0.000000 0.530914 Au
0.500000 0.500000 0.530914 Au
0.500000 0.166667 0.530914 Au
0.500000 0.833333 0.530914 Au
1.000000 0.500000 0.547043 Au
1.000000 0.166667 0.547043 Au
1.000000 0.833333 0.547043 Au
0.500000 0.666667 0.547043 Au
0.500000 0.333333 0.547043 Au
0.500000 0.000000 0.547043 Au
-0.000000 1.000000 0.578957 V
-0.000000 0.750000 0.578957 V
-0.000000 0.500000 0.578957 V
-0.000000 0.250000 0.578957 V
-0.500000 1.000000 0.562568 V
-0.500000 0.750000 0.562568 V
-0.500000 0.500000 0.562568 V
-0.500000 0.250000 0.562568 V
0.000000 0.875000 0.562568 V
0.000000 0.625000 0.562568 V
0.000000 0.375000 0.562568 V
-0.000000 1.125000 0.562568 V
-0.500000 0.875000 0.578957 V
-0.500000 0.625000 0.578957 V
-0.500000 0.375000 0.578957 V
-0.500000 1.125000 0.578957 V
0.000000 1.000000 0.611737 V
0.000000 0.750000 0.611737 V
0.000000 0.500000 0.611737 V
0.000000 0.250000 0.611737 V
-0.500000 1.000000 0.595347 V
-0.500000 0.750000 0.595347 V
-0.500000 0.500000 0.595347 V
-0.500000 0.250000 0.595347 V
0.000000 0.875000 0.595347 V
0.000000 0.625000 0.595347 V
0.000000 0.375000 0.595347 V
0.000000 1.125000 0.595347 V
-0.500000 0.875000 0.611737 V
-0.500000 0.625000 0.611737 V
-0.500000 0.375000 0.611737 V
-0.500000 1.125000 0.611737 V
0.000000 1.000000 0.644516 V
0.000000 0.750000 0.644516 V
0.000000 0.500000 0.644516 V
0.000000 0.250000 0.644516 V
-0.500000 1.000000 0.628126 V
-0.500000 0.750000 0.628126 V
-0.500000 0.500000 0.628126 V
-0.500000 0.250000 0.628126 V
0.000000 0.875000 0.628126 V
0.000000 0.625000 0.628126 V
0.000000 0.375000 0.628126 V
-0.000000 1.125000 0.628126 V
-0.500000 0.875000 0.644516 V
-0.500000 0.625000 0.644516 V
-0.500000 0.375000 0.644516 V
-0.500000 1.125000 0.644516 V
