Al6
1.0
2.856323 0.000000 0.000000
0.000000 2.856323 0.000000
0.000000 0.000000 37.216981
Al
6
direct
0.000000 0.000000 0.417959 Al
0.500000 0.500000 0.472658 Al
0.000000 0.000000 0.308231 Al
0.500000 0.500000 0.363660 Al
0.000000 0.000000 0.198180 Al
0.500000 0.500000 0.253517 Al
