Al6
1.0
2.856323 0.000000 0.000000
0.000000 2.856323 0.000000
0.000000 0.000000 37.216981
Al
6
direct
0.000000 0.000000 0.746483 Al
0.500000 0.500000 0.801820 Al
0.000000 0.000000 0.636340 Al
0.500000 0.500000 0.691769 Al
0.000000 0.000000 0.527342 Al
0.500000 0.500000 0.582041 Al

