Cubic Cu
   3.6149
 1.0 0.0 0.0
 0.0 1.0 0.0
 0.0 0.0 1.0
   Cu
   4
Direct
 0.00 0.00 0.00
 0.00 0.50 0.50
 0.50 0.00 0.50
 0.50 0.50 0.00